results_rootrelaxation/bin012_050_049.srr.sol
solution status: optimal solution found
objective value:                                    0
_var7_                              0.225174374067655 	(obj:0)
_var9_                              0.130347135427166 	(obj:0)
_var25_                            0.0143127847437809 	(obj:0)
_var35_                             0.325565455791639 	(obj:0)
_var118_                            0.196589122283594 	(obj:0)
_var429_                            0.220497520461234 	(obj:0)
_var560_                            0.165786396806836 	(obj:0)
_var591_                           0.0129823005281614 	(obj:0)
_var640_                           0.0260452364633289 	(obj:0)
_var694_                          0.000967624884086526 	(obj:0)
_var710_                            0.105027617626901 	(obj:0)
_var712_                           0.0472926662097328 	(obj:0)
_var720_                            0.202919001733662 	(obj:0)
_var727_                            0.145748498165545 	(obj:0)
_var728_                           0.0224972785550132 	(obj:0)
_var730_                            0.647744224488973 	(obj:0)
_var731_                            0.155021569971371 	(obj:0)
_var732_                           0.0323347982098939 	(obj:0)
_var743_                            0.284159174293432 	(obj:0)
_var744_                            0.359996774583721 	(obj:0)
_var747_                            0.234931258315525 	(obj:0)
_var748_                            0.495262669838325 	(obj:0)
_var754_                           0.0766842720638626 	(obj:0)
_var755_                           0.0129823005281615 	(obj:0)
_var756_                            0.297343063339113 	(obj:0)
_var757_                           0.0973269362577113 	(obj:0)
_var758_                            0.346087166874976 	(obj:0)
_var760_                           0.0340684594605495 	(obj:0)
_var761_                            0.206063782606943 	(obj:0)
_var762_                            0.207958714671616 	(obj:0)
_var764_                            0.257388219167035 	(obj:0)
_var765_                           0.0980526549207754 	(obj:0)
_var768_                            0.303995484417208 	(obj:0)
_var773_                           0.0267306374228918 	(obj:0)
_var775_                            0.144982461798978 	(obj:0)
_var779_                            0.193605612224327 	(obj:0)
_var781_                            0.204733298391325 	(obj:0)
_var782_                           0.0448332862960121 	(obj:0)
_var783_                            0.147119300084667 	(obj:0)
_var784_                            0.211426037172924 	(obj:0)
_var786_                           0.0660403983389123 	(obj:0)
_var788_                            0.019876627827278 	(obj:0)
_var789_                            0.359996774583721 	(obj:0)
_var790_                            0.405071967100754 	(obj:0)
_var791_                           0.0789420634600672 	(obj:0)
_var794_                            0.172237229367414 	(obj:0)
_var796_                            0.181228077248719 	(obj:0)
_var800_                          0.00624924404305827 	(obj:0)
_var804_                            0.304761520783777 	(obj:0)
_var805_                            0.329758496956014 	(obj:0)
_var806_                            0.198443736644759 	(obj:0)
_var809_                            0.273394347457969 	(obj:0)
_var810_                           0.0564044672015467 	(obj:0)
_var811_                           0.0652340442688386 	(obj:0)
_var813_                           0.0947466032334802 	(obj:0)
_var814_                           0.0795065113091154 	(obj:0)
_var815_                             0.11409910091521 	(obj:0)
_var816_                           0.0684191428456265 	(obj:0)
_var817_                            0.355440874087809 	(obj:0)
_var818_                           0.0522517437406769 	(obj:0)
_var819_                            0.173648348990041 	(obj:0)
_var824_                           0.0795065113091154 	(obj:0)
_var826_                             0.35552150949482 	(obj:0)
_var827_                           0.0278595331209939 	(obj:0)
_var829_                            0.118775954521631 	(obj:0)
